============================[ Problem Statistics ]=============================|                                                                             ||  Number of variables:          4242                                         ||  Number of clauses:           10287                                         ||  Parse time:                   0.70 s                                       ||                                                                             |============================[ Search Statistics ]==============================| Conflicts |          ORIGINAL         |          LEARNT          | Progress ||           |    Vars  Clauses Literals |    Limit  Clauses Lit/Cl |          |===============================================================================|       100 |    1591     6492  1076173 |     2380      100     53 | 62.501 % ||       250 |    1591     6492  1076173 |     2618      250     75 | 62.495 % |===============================================================================restarts              : 3conflicts             : 368            (349 /sec)decisions             : 633            (0.00 % random) (601 /sec)propagations          : 11990          (11387 /sec)conflict literals     : 30141          (94.60 % deleted)CPU time              : 1.053 sSATISFIABLE